
se = 80; % nombre de sessions
gr = 40; % nombre de grups de treball
cl = 12; % nombre de slots
minPapersPerSlot = 3; % minim nombre d'articles per sessio i slot
maxSesionsPar = 20; % maxim nombre de sessions paraleles

npMax = [5, 4, 4, 5, 3, 3, 6, 6, 3, 6, 6, 5]; % nombre maxim de papers per slot

np = [3, 10, 12, 8, 14, 8, 3, 6, 11, 3, 14, 11, 11, 15, 11, 11, 9, 5, 7, 4, 16, 12, 11, 6, 5, 3, 6, 13, 12, 3, 3, 18, 9, 15, 15, 14, 4, 6, 13, 7, 12, 9, 19, 11, 15, 5, 6, 4, 14, 5, 14, 16, 15, 3, 16, 7, 15, 15, 15, 12, 11, 6, 5, 14, 15, 10, 16, 7, 19, 10, 10, 4, 12, 4, 18, 3, 7, 3, 3, 12]; % nombre de papers acceptats a cada sessio

WG = [ {1}, {2}, {}, {3}, {4}, {}, {5}, {6,7,8}, {9}, {10,11}, {12}, {13}, {14}, {}, {}, {15}, {16,17,18}, {19}, {20,21}, {22}, {}, {23,24}, {25}, {}, {}, {26}, {27,28}, {29}, {}, {30,31,32}, {}, {33}, {34}, {35,36}, {}, {37}, {}, {38,39,40}, {}, {1}, {2,3,4}, {5}, {6}, {7}, {8}, {}, {}, {}, {9}, {}, {}, {}, {10}, {11}, {12,13}, {14}, {15}, {}, {16}, {}, {17}, {18}, {19,20,21}, {}, {22}, {23}, {24}, {25}, {}, {26,27,28}, {}, {29}, {}, {30}, {}, {31}, {32}, {}, {33}, {} ]; % grups per sessio

